10  5
 0  6  1 11  2  8  4 10  3  5  17 159  10
 0 10  3  8  2  8  4 11  1  3  28 154   5
 0  4  4  9  2 14  3 11  1  9  27 169   5
 3  9  1  6  2 10  4  3  0  4  32 165  10
 1 11  0 10  2 16  3  4  4  7  27 169  10
 0  3  3  6  2 15  4  8  1  9  21 150  10
 0  3  1 11  2 12  3  8  4  6   5 174  10
 0  5  4  9  2 13  3 10  1  9  20 163  10
 1  3  3  9  2 11  4  9  0  8  13 150  10
 3  8  1  8  2 12  0  6  4  5   5 151   5
